# Solution for model F-JSSP-SDST
# Objective value = 445
B0(13) 1
B1(12) 1
B2(13) 0
B3(14) 0
B4(12) 1
B5(11) 1
B6(14) 0
B7(14) 1
B8(12) 1
B9(12) 0
B10(0) 0
B11(0) 0
B12(2) 0
B13(0) 0
B14(2) 0
B15(2) 0
B16(0) 0
B17(0) 0
B18(4) 0
B19(2) 0
B20(4) 1
B21(4) 0
B22(0) 0
B23(0) 0
B24(0) 0
B25(0) 0
B26(4) 0
B27(4) 0
B28(0) 0
B29(0) 0
B30(0) 0
B31(0) 0
B32(2) 0
B33(2) 0
B34(0) 0
B35(0) 0
B36(0) 0
B37(0) 0
B38(0) 0
B39(0) 0
B40(0) 0
B41(0) 0
B42(0) 0
B43(0) 0
B44(0) 0
B45(0) 0
I46(13) 12
I47(14) 62
I48(16) 0
I49(15) 0
I50(13) 0
I51(14) 60
I52(14) 0
I53(14) 140
I54(15) 275
I55(15) 0
I56(1) 445
B57(2) 0
B58(4) 1
B59(4) 0
B60(2) 0
B61(2) 0
B62(4) 1
B63(2) 0
B64(2) 1
B65(4) 1
B66(4) 0
